c ---- [ banner ] ------------------------------------------------------------
c
c Kissat SAT Solver
c 
c Copyright (c) 2021-2024 Armin Biere University of Freiburg
c Copyright (c) 2019-2021 Armin Biere Johannes Kepler University Linz
c 
c Version 4.0.1 43f02cf3e992cb44653b35e5cb26f93281552ae0
c gcc (Ubuntu 13.2.0-23ubuntu4) 13.2.0 -W -Wall -O3 -DNDEBUG
c Thu Sep 12 12:27:46 CEST 2024 Linux abryzen9 6.8.0-41-generic x86_64
c
c ---- [ parsing ] -----------------------------------------------------------
c
c opened and reading DIMACS file:
c
c   /data/artifact/AMulet2.0_artifact/exp4/cnf_sopb_64/64_64_U_SP_WT_BK_GenMul_sopb.cnf
c
c parsed 'p cnf 29942 132769' header
c closing input after reading 2669709 bytes (3 MB)
c finished parsing after 0.03 seconds
c
c ---- [ options ] -----------------------------------------------------------
c
c --stable=0                       (different from default '1')
c
c ---- [ solving ] -----------------------------------------------------------
c
c  seconds switched rate     size/glue tier1  binary           remaining
c         MB reductions conflicts size  tier2     irredundant
c          level restarts redundant glue  trail           variables
c
c *  0.03 10 0 0 0  0 0   0   0 0.0 0 0 0 0 0% 13364 119403 29939 100%
c (  0.06 12 0 0 0  0 0   0   0 0.0 0 0 0 0 0% 13364 119403 29939 100%
c .  0.07 13 0 0 0  0 0   0   0 0.0 0 0 0 0 0% 13360 119403 29939 100%
c c  0.17 18 0 0 0  0 0   0   0 0.0 0 0 0 0 0% 18222 109929 27510 92%
c d  0.18 18 0 0 0  0 0   0   0 0.0 0 0 0 0 0% 13364 109929 27510 92%
c =  0.24 18 0 0 0  0 0   0   0 0.0 0 0 0 0 0% 13254 109926 27487 92%
c d  0.25 18 0 0 0  0 0   0   0 0.0 0 0 0 0 0% 13205 109926 27487 92%
c f  0.39 18 0 0 0  0 0   0   0 0.0 0 0 0 0 0% 18885 100891 30745 103%
c e  0.61 25 0 0 0  0 0   0   0 0.0 0 0 0 0 0% 11480 110565 21265 71%
c )  0.61 25 0 0 0  0 0   0   0 0.0 0 0 0 0 0% 11480 110565 21265 71%
c {  0.63 25 0 0 0  0 0   0   0 0.0 0 0 2 6 0% 11480 110565 21265 71%
c -  0.95 26 141 0 1 276 44 1000 681 2.7 15 6 3 11 19% 11580 110560 21265 71%
c -  1.24 26 316 0 2 394 52 2000 1393 4.0 23 6 3 13 23% 11623 110560 21265 71%
c c  1.47 22 369 0 2 467 51 2505 1821 4.1 24 6 3 13 23% 11657 110534 21261 71%
c d  1.47 22 369 0 2 467 51 2505 1821 4.1 24 6 3 13 23% 11649 110534 21261 71%
c u  1.49 22 369 0 2 467 51 2505 1447 4.1 24 6 3 13 23% 11662 110534 21261 71%
c v  1.52 22 369 0 2 467 51 2505 1241 4.1 24 6 3 13 23% 11662 110534 21261 71%
c w  1.54 25 369 0 2 467 51 2505 1240 4.1 24 6 3 13 23% 11662 110534 21261 71%
c x  1.57 25 369 0 2 467 51 2505 1240 4.1 24 6 3 13 23% 11754 110328 21261 71%
c =  1.66 25 369 0 2 467 51 2505 1240 4.1 24 6 3 13 23% 11934 110328 21171 71%
c
c  seconds   switched   rate       size/glue tier1     binary           remaining
c         MB  reductions conflicts       size  tier2       irredundant
c           level restarts    redundant    glue    trail           variables
c
c d  1.67 25 369 0 2 467 51 2505 1238 4.1 24 6 3 13 23% 11748 110328 21171 71%
c t  1.69 25 369 0 2 467 51 2505 1238 4.1 24 6 3 13 23% 11740 110328 21171 71%
c f  1.73 25 369 0 2 467 51 2505 1238 4.1 24 6 3 13 23% 12602 108631 21887 73%
c u  1.77 25 369 0 2 467 51 2505 1197 4.1 24 6 3 13 23% 12603 108631 21887 73%
c v  1.80 25 369 0 2 467 51 2505 1163 4.1 24 6 3 13 23% 12603 108631 21887 73%
c w  1.84 25 369 0 2 467 51 2505 1163 4.1 24 6 3 13 23% 12603 108631 21887 73%
c x  1.86 25 369 0 2 467 51 2505 1163 4.1 24 6 3 13 23% 12603 108571 21887 73%
c =  1.95 25 369 0 2 467 51 2505 1163 4.1 24 6 3 13 23% 12841 108571 21768 73%
c d  1.96 25 369 0 2 467 51 2505 1162 4.1 24 6 3 13 23% 12592 108571 21768 73%
c f  2.02 25 369 0 2 467 51 2505 1162 4.1 24 6 3 13 23% 13727 106855 22338 75%
c -  2.24 26 408 0 3 548 46 3415 1679 3.9 21 5 3 11 23% 13793 106854 22338 75%
c -  3.02 26 362 0 4 895 48 5147 2725 4.3 27 6 2 10 24% 13865 106853 22338 75%
c -  3.53 26 376 0 5 1109 46 7148 3704 4.3 26 6 2 10 23% 14043 106845 22338 75%
c c  3.70 26 392 0 5 1139 45 7713 4179 4.2 25 6 2 10 23% 14114 106612 22286 74%
c d  3.71 26 392 0 5 1139 45 7713 4169 4.2 25 6 2 10 23% 14010 106612 22286 74%
c u  3.73 26 392 0 5 1139 45 7713 3662 4.2 25 6 2 10 23% 14034 106612 22286 74%
c v  3.77 26 392 0 5 1139 45 7713 3118 4.2 25 6 2 10 23% 14035 106612 22286 74%
c w  3.83 26 392 0 5 1139 45 7713 3112 4.2 25 6 2 10 23% 14035 106612 22286 74%
c =  3.98 26 392 0 5 1139 45 7713 3112 4.2 25 6 2 10 23% 14651 106612 21978 73%
c d  3.99 26 392 0 5 1139 45 7713 3093 4.2 25 6 2 10 23% 13921 106612 21976 73%
c
c  seconds   switched    rate       size/glue tier1     binary           remaining
c         MB  reductions  conflicts       size  tier2       irredundant
c           level  restarts    redundant    glue    trail           variables
c
c t  4.01 26 392 0 5 1139 45 7713 3093 4.2 25 6 2 10 23% 13895 106612 21976 73%
c f  4.06 26 392 0 5 1139 45 7713 3093 4.2 25 6 2 10 23% 14720 105368 22392 75%
c u  4.16 26 392 0 5 1139 45 7713 3028 4.2 25 6 2 10 23% 14725 105368 22392 75%
c v  4.19 26 392 0 5 1139 45 7713 2947 4.2 25 6 2 10 23% 14725 105368 22392 75%
c w  4.24 26 392 0 5 1139 45 7713 2946 4.2 25 6 2 10 23% 14725 105368 22392 75%
c x  4.28 26 392 0 5 1139 45 7713 2946 4.2 25 6 2 10 23% 14729 105095 22392 75%
c =  4.43 26 392 0 5 1139 45 7713 2946 4.2 25 6 2 10 23% 15207 105095 22153 74%
c d  4.44 26 392 0 5 1139 45 7713 2946 4.2 25 6 2 10 23% 14562 105095 22153 74%
c t  4.46 26 392 0 5 1139 45 7713 2946 4.2 25 6 2 10 23% 14469 105095 22153 74%
c f  4.52 26 392 0 5 1139 45 7713 2946 4.2 25 6 2 10 23% 17019 101267 23431 78%
c -  4.87 26 401 0 6 1248 43 9386 3770 4.1 24 6 2 9 23% 17126 101266 23431 78%
c o  5.10 26 387 0 6 1302 41 10014 4365 4.2 25 6 2 9 23% 17130 101266 23431 78%
c -  5.66 26 370 0 7 1470 39 11835 5279 4.3 26 6 2 8 23% 17208 101265 23431 78%
c s  5.87 26 376 0 7 1509 39 12516 5883 4.2 25 6 2 8 23% 17235 98760 23431 78%
c e  6.01 26 376 0 7 1509 39 12516 5883 4.2 25 6 2 8 23% 16223 99436 22576 75%
c s  6.02 26 376 0 7 1509 39 12516 5883 4.2 25 6 2 8 23% 16231 98967 22576 75%
c e  6.03 26 376 0 7 1509 39 12516 5883 4.2 25 6 2 8 23% 16026 99099 22477 75%
c ^  6.03 26 376 0 7 1509 39 12516 5883 4.2 25 6 2 8 23% 16026 99099 22477 75%
c -  6.90 26 363 0 8 1745 38 14480 6294 4.5 28 6 2 8 24% 16121 99095 22477 75%
c d  7.13 26 373 0 8 1836 37 15796 7422 4.3 27 6 2 8 24% 15855 99081 22282 74%
c
c  seconds   switched    rate        size/glue tier1    binary          remaining
c         MB  reductions   conflicts       size  tier2      irredundant
c           level  restarts     redundant    glue   trail          variables
c
c u  7.17 26 373 0 8 1836 37 15796 6505 4.3 27 6 2 8 24% 15876 99081 22282 74%
c v  7.22 26 373 0 8 1836 37 15796 5669 4.3 27 6 2 8 24% 15878 99081 22282 74%
c w  7.31 26 373 0 8 1836 37 15796 5656 4.3 27 6 2 8 24% 15878 99081 22282 74%
c x  7.36 26 373 0 8 1836 37 15796 5656 4.3 27 6 2 8 24% 15922 98743 22282 74%
c =  7.52 26 373 0 8 1836 37 15796 5656 4.3 27 6 2 8 24% 16560 98743 21963 73%
c d  7.53 26 373 0 8 1836 37 15796 5635 4.3 27 6 2 8 24% 15874 98743 21963 73%
c t  7.55 26 373 0 8 1836 37 15796 5635 4.3 27 6 2 8 24% 15802 98743 21963 73%
c f  7.62 26 373 0 8 1836 37 15796 5635 4.3 27 6 2 8 24% 15967 98390 22054 74%
c u  7.70 26 373 0 8 1836 37 15796 5457 4.3 27 6 2 8 24% 15971 98390 22054 74%
c v  7.73 26 373 0 8 1836 37 15796 5348 4.3 27 6 2 8 24% 15971 98390 22054 74%
c w  7.78 26 373 0 8 1836 37 15796 5326 4.3 27 6 2 8 24% 15971 98390 22054 74%
c x  7.82 26 373 0 8 1836 37 15796 5326 4.3 27 6 2 8 24% 16012 96995 22054 74%
c =  7.99 26 373 0 8 1836 37 15796 5326 4.3 27 6 2 8 24% 18690 96995 20715 69%
c d  7.99 26 373 0 8 1836 37 15796 5299 4.3 27 6 2 8 24% 14768 96995 20715 69%
c t  8.02 26 373 0 8 1836 37 15796 5299 4.3 27 6 2 8 24% 14747 96995 20715 69%
c f  8.06 26 373 0 8 1836 37 15796 5299 4.3 27 6 2 8 24% 14760 96963 20723 69%
c -  8.60 26 382 0 9 2019 39 17308 5977 4.3 28 7 2 8 24% 14781 96963 20723 69%
c o  9.42 26 375 0 9 2248 37 20056 8376 4.1 30 7 2 8 24% 14879 96960 20723 69%
c -  9.59 26 372 0 10 2297 37 20309 7666 4.2 30 7 2 7 24% 14882 96960 20723 69%
c - 10.44 26 370 0 11 2546 36 23471 9193 4.1 31 7 2 7 24% 15034 96960 20723 69%
c
c  seconds   switched     rate         size/glue tier1    binary          remaining
c         MB   reductions   conflicts        size  tier2      irredundant
c           level   restarts      redundant    glue   trail          variables
c
c s 10.68 26 367 0 11 2588 35 25025 10591 4.0 29 7 2 7 24% 15072 93287 20723 69%
c e 10.82 26 367 0 11 2588 35 25025 10591 4.0 29 7 2 7 24% 11610 97521 18861 63%
c 2 10.82 26 367 0 11 2588 35 25025 10591 4.0 29 7 2 7 24% 11607 97521 18861 63%
c s 10.84 26 367 0 11 2588 35 25025 10591 4.0 29 7 2 7 24% 11639 97281 18861 63%
c e 10.85 26 367 0 11 2588 35 25025 10591 4.0 29 7 2 7 24% 11570 97359 18837 63%
c ^ 10.85 26 367 0 11 2588 35 25025 10591 4.0 29 7 2 7 24% 11570 97359 18837 63%
c - 11.26 26 363 0 12 2683 34 26787 9356 4.0 29 7 2 7 24% 11622 97359 18837 63%
c d 11.29 26 363 0 12 2689 34 26926 9457 4.0 29 7 2 7 24% 11381 97359 18691 62%
c u 11.36 26 363 0 12 2689 34 26926 8115 4.0 29 7 2 7 24% 11402 97359 18691 62%
c v 11.41 26 363 0 12 2689 34 26926 7271 4.0 29 7 2 7 24% 11403 97359 18691 62%
c w 11.44 26 363 0 12 2689 34 26926 7270 4.0 29 7 2 7 24% 11403 97359 18691 62%
c x 11.54 26 363 0 12 2689 34 26926 7264 4.0 29 7 2 7 24% 11462 95896 18691 62%
c = 11.84 26 363 0 12 2689 34 26926 7264 4.0 29 7 2 7 24% 14177 95896 17333 58%
c d 11.85 26 363 0 12 2689 34 26926 7134 4.0 29 7 2 7 24% 11364 95896 17333 58%
c t 11.87 26 363 0 12 2689 34 26926 7134 4.0 29 7 2 7 24% 11318 95896 17333 58%
c f 11.96 26 363 0 12 2689 34 26926 7134 4.0 29 7 2 7 24% 11423 95605 17390 58%
c u 12.02 26 363 0 12 2689 34 26926 6756 4.0 29 7 2 7 24% 11426 95605 17390 58%
c v 12.05 26 363 0 12 2689 34 26926 6611 4.0 29 7 2 7 24% 11427 95605 17390 58%
c w 12.08 26 363 0 12 2689 34 26926 6611 4.0 29 7 2 7 24% 11427 95605 17390 58%
c x 12.20 26 363 0 12 2689 34 26926 6611 4.0 29 7 2 7 24% 11427 89864 17390 58%
c
c  seconds   switched     rate        size/glue tier1    binary          remaining
c         MB   reductions   conflicts       size  tier2      irredundant
c           level   restarts     redundant    glue   trail          variables
c
c = 12.47 26 363 0 12 2689 34 26926 6611 4.0 29 7 2 7 24% 12307 89864 16950 57%
c d 12.48 26 363 0 12 2689 34 26926 6582 4.0 29 7 2 7 24% 11394 89864 16950 57%
c t 12.51 26 363 0 12 2689 34 26926 6582 4.0 29 7 2 7 24% 11350 89864 16950 57%
c f 12.53 26 363 0 12 2689 34 26926 6582 4.0 29 7 2 7 24% 11356 89840 16956 57%
c - 13.12 26 359 0 13 2867 33 30251 8614 4.0 28 7 2 7 23% 11428 89839 16956 57%
c - 13.78 26 356 0 14 3063 32 33857 10656 3.9 27 7 2 7 24% 11516 89837 16956 57%
c - 14.65 26 344 0 15 3381 31 37598 12502 3.9 27 7 2 6 24% 11564 89836 16956 57%
c o 15.12 26 331 0 15 3538 30 40531 14790 3.8 26 7 2 6 23% 11637 89836 16956 57%
c c 15.45 26 330 0 15 3639 31 41252 15446 3.9 27 7 2 6 23% 11757 89188 16840 56%
c d 15.46 26 330 0 15 3639 31 41252 15112 3.9 27 7 2 6 23% 11525 89188 16840 56%
c u 15.54 26 330 0 15 3639 31 41252 12666 3.9 27 7 2 6 23% 11555 89188 16840 56%
c v 15.62 26 330 0 15 3639 31 41252 11675 3.9 27 7 2 6 23% 11557 89188 16840 56%
c w 15.67 26 330 0 15 3639 31 41252 11675 3.9 27 7 2 6 23% 11557 89188 16840 56%
c x 15.75 26 330 0 15 3639 31 41252 11674 3.9 27 7 2 6 23% 11557 85241 16840 56%
c = 15.99 26 330 0 15 3639 31 41252 11674 3.9 27 7 2 6 23% 11759 85241 16739 56%
c d 16.00 26 330 0 15 3639 31 41252 11579 3.9 27 7 2 6 23% 11540 85241 16735 56%
c t 16.03 26 330 0 15 3639 31 41252 11579 3.9 27 7 2 6 23% 11518 85241 16735 56%
c f 16.05 26 330 0 15 3639 31 41252 11579 3.9 27 7 2 6 23% 11534 85201 16743 56%
c u 16.12 26 330 0 15 3639 31 41252 11104 3.9 27 7 2 6 23% 11544 85201 16743 56%
c v 16.17 26 330 0 15 3639 31 41252 10609 3.9 27 7 2 6 23% 11545 85201 16743 56%
c
c  seconds   switched     rate         size/glue tier1    binary          remaining
c         MB   reductions   conflicts        size  tier2      irredundant
c           level   restarts      redundant    glue   trail          variables
c
c w 16.23 26 330 0 15 3639 31 41252 10605 3.9 27 7 2 6 23% 11545 85201 16743 56%
c x 16.30 26 330 0 15 3639 31 41252 10604 3.9 27 7 2 6 23% 11545 84287 16743 56%
c = 16.54 26 330 0 15 3639 31 41252 10604 3.9 27 7 2 6 23% 11755 84287 16638 56%
c d 16.55 26 330 0 15 3639 31 41252 10557 3.9 27 7 2 6 23% 11533 84287 16636 56%
c t 16.57 26 330 0 15 3639 31 41252 10557 3.9 27 7 2 6 23% 11525 84287 16636 56%
c - 16.62 26 331 0 16 3651 31 41472 9581 3.9 27 7 2 6 23% 11527 84287 16636 56%
c - 17.67 26 317 0 17 4022 31 45473 11681 3.9 27 7 2 6 24% 11601 84287 16636 56%
c - 18.53 26 306 0 18 4324 30 49596 13803 3.9 28 7 2 6 24% 11669 84287 16636 56%
c s 18.75 26 313 0 18 4397 29 52132 15890 3.8 27 7 2 6 23% 11778 81833 16636 56%
c e 18.87 26 313 0 18 4397 29 52132 15890 3.8 27 7 2 6 23% 10644 83684 16017 53%
c 2 18.87 26 313 0 18 4397 29 52132 15890 3.8 27 7 2 6 23% 10642 83684 16017 53%
c s 18.88 26 313 0 18 4397 29 52132 15890 3.8 27 7 2 6 23% 10657 83273 16017 53%
c e 18.89 26 313 0 18 4397 29 52132 15890 3.8 27 7 2 6 23% 10619 83324 16001 53%
c ^ 18.89 26 313 0 18 4397 29 52132 15890 3.8 27 7 2 6 23% 10619 83324 16001 53%
c - 19.58 26 308 0 19 4674 30 53838 12684 3.9 27 7 1 6 23% 10626 83324 16001 53%
c - 20.27 26 297 0 20 4925 29 58196 13307 3.8 27 7 1 6 23% 10719 83324 16001 53%
c c 20.41 26 296 0 20 4945 28 58879 13853 3.8 26 7 1 6 23% 10908 82390 15860 53%
c d 20.42 26 296 0 20 4945 28 58879 13497 3.8 26 7 1 6 23% 10626 82390 15860 53%
c u 20.47 26 296 0 20 4945 28 58879 12156 3.8 26 7 1 6 23% 10639 82390 15860 53%
c v 20.55 26 296 0 20 4945 28 58879 10134 3.8 26 7 1 6 23% 10663 82390 15860 53%
c
c  seconds   switched     rate         size/glue tier1    binary          remaining
c         MB   reductions   conflicts        size  tier2      irredundant
c           level   restarts      redundant    glue   trail          variables
c
c w 20.60 26 296 0 20 4945 28 58879 10109 3.8 26 7 1 6 23% 10663 82390 15860 53%
c x 20.76 26 296 0 20 4945 28 58879 10102 3.8 26 7 1 6 23% 10681 81175 15860 53%
c = 21.11 26 296 0 20 4945 28 58879 10102 3.8 26 7 1 6 23% 11957 81167 15222 51%
c d 21.12 26 296 0 20 4945 28 58879 9801 3.8 26 7 1 6 23% 10606 81167 15213 51%
c t 21.14 26 296 0 20 4945 28 58879 9801 3.8 26 7 1 6 23% 10516 81167 15213 51%
c f 21.20 26 296 0 20 4945 28 58879 9801 3.8 26 7 1 6 23% 10525 81118 15220 51%
c c 21.28 26 296 0 20 4945 28 58879 9781 3.8 26 7 1 6 23% 10551 81021 15207 51%
c d 21.28 26 296 0 20 4945 28 58879 9781 3.8 26 7 1 6 23% 10525 81021 15207 51%
c u 21.33 26 296 0 20 4945 28 58879 9370 3.8 26 7 1 6 23% 10528 81021 15207 51%
c v 21.39 26 296 0 20 4945 28 58879 8930 3.8 26 7 1 6 23% 10532 81021 15207 51%
c w 21.43 26 296 0 20 4945 28 58879 8915 3.8 26 7 1 6 23% 10532 81021 15207 51%
c x 21.63 26 296 0 20 4945 28 58879 8913 3.8 26 7 1 6 23% 10545 76773 15207 51%
c = 21.99 26 296 0 20 4945 28 58879 8913 3.8 26 7 1 6 23% 12351 76773 14304 48%
c d 22.00 26 296 0 20 4945 28 58879 8715 3.8 26 7 1 6 23% 10492 76773 14304 48%
c t 22.02 26 296 0 20 4945 28 58879 8715 3.8 26 7 1 6 23% 10345 76773 14304 48%
c f 22.07 26 296 0 20 4945 28 58879 8715 3.8 26 7 1 6 23% 10372 76580 14330 48%
c - 22.85 26 289 0 21 5267 28 62668 10077 3.7 26 7 1 6 23% 10427 76578 14330 48%
c - 24.16 26 279 0 22 5819 29 67250 12107 3.8 27 7 1 6 24% 10498 76577 14330 48%
c o 24.64 26 274 0 22 6018 28 70534 14853 3.7 26 7 1 6 23% 10546 76575 14330 48%
c - 25.09 26 271 0 23 6204 28 71940 13577 3.7 27 7 1 6 23% 10549 76574 14330 48%
c
c  seconds   switched     rate         size/glue tier1    binary          remaining
c         MB   reductions   conflicts        size  tier2      irredundant
c           level   restarts      redundant    glue   trail          variables
c
c - 26.34 26 262 0 24 6664 27 76735 15015 3.7 27 7 1 5 24% 10598 76574 14330 48%
c d 27.24 26 256 0 24 6999 27 79945 17834 3.7 27 7 1 5 24% 10482 76572 14259 48%
c u 27.31 26 256 0 24 6999 27 79945 15739 3.7 27 7 1 5 24% 10504 76572 14259 48%
c v 27.42 26 256 0 24 6999 27 79945 13386 3.7 27 7 1 5 24% 10513 76572 14259 48%
c w 27.62 26 256 0 24 6999 27 79945 13362 3.7 27 7 1 5 24% 10513 76572 14259 48%
c x 27.73 26 256 0 24 6999 27 79945 13359 3.7 27 7 1 5 24% 10522 75542 14259 48%
c = 27.83 26 256 0 24 6999 27 79945 13359 3.7 27 7 1 5 24% 10610 75542 14215 47%
c d 27.84 26 256 0 24 6999 27 79945 13263 3.7 27 7 1 5 24% 10490 75542 14212 47%
c t 27.87 26 256 0 24 6999 27 79945 13263 3.7 27 7 1 5 24% 10458 75542 14212 47%
c f 27.89 26 256 0 24 6999 27 79945 13263 3.7 27 7 1 5 24% 10464 75509 14217 47%
c c 27.96 26 256 0 24 6999 27 79945 13223 3.7 27 7 1 5 24% 10506 75304 14191 47%
c d 27.96 26 256 0 24 6999 27 79945 13223 3.7 27 7 1 5 24% 10454 75304 14191 47%
c u 28.02 26 256 0 24 6999 27 79945 12751 3.7 27 7 1 5 24% 10461 75304 14191 47%
c v 28.09 26 256 0 24 6999 27 79945 12174 3.7 27 7 1 5 24% 10464 75304 14191 47%
c w 28.31 26 256 0 24 6999 27 79945 11949 3.7 27 7 1 5 24% 10464 75304 14191 47%
c x 28.45 26 256 0 24 6999 27 79945 11947 3.7 27 7 1 5 24% 10465 70103 14191 47%
c = 28.97 26 256 0 24 6999 27 79945 11947 3.7 27 7 1 5 24% 11163 70053 13837 46%
c d 28.98 26 256 0 24 6999 27 79945 11566 3.7 27 7 1 5 24% 10400 70053 13837 46%
c t 29.00 26 256 0 24 6999 27 79945 11566 3.7 27 7 1 5 24% 10341 70053 13837 46%
c f 29.03 26 256 0 24 6999 27 79945 11566 3.7 27 7 1 5 24% 10362 69957 13849 46%
c
c  seconds   switched     rate         size/glue tier1    binary          remaining
c         MB   reductions   conflicts        size  tier2      irredundant
c           level   restarts      redundant    glue   trail          variables
c
c - 29.38 26 255 0 25 7149 27 81634 11061 3.7 27 7 1 5 24% 10371 69951 13849 46%
c - 29.97 26 247 0 26 7383 26 86634 13007 3.6 26 7 1 6 23% 10465 69948 13849 46%
c - 31.00 26 239 0 27 7834 26 91734 15013 3.6 26 7 1 5 24% 10504 69944 13849 46%
c s 31.89 26 238 0 27 8142 26 95790 18733 3.5 26 7 1 5 24% 10548 68698 13849 46%
c e 32.03 26 238 0 27 8142 26 95790 18733 3.5 26 7 1 5 24% 6821 77444 11980 40%
c 2 32.04 26 238 0 27 8142 26 95790 18733 3.5 26 7 1 5 24% 6817 77444 11980 40%
c s 32.06 26 238 0 27 8142 26 95790 18733 3.5 26 7 1 5 24% 6834 76703 11980 40%
c e 32.08 26 238 0 27 8142 26 95790 18733 3.5 26 7 1 5 24% 6745 76916 11936 40%
c ^ 32.08 26 238 0 27 8142 26 95790 18733 3.5 26 7 1 5 24% 6745 76916 11936 40%
c - 32.47 26 236 0 28 8331 26 96930 12186 3.5 26 7 1 5 24% 6750 76916 11936 40%
c i 32.68 26 236 0 28 8430 26 98106 13154 3.5 26 7 1 5 24% 6772 76916 11935 40%
c - 33.40 26 230 0 29 8749 25 102221 14451 3.5 26 7 1 5 24% 6777 76915 11935 40%
c c 33.95 26 227 0 29 8984 25 104587 16608 3.5 25 7 1 5 24% 6827 76611 11901 40%
c d 33.96 26 227 0 29 8984 25 104587 16507 3.5 25 7 1 5 24% 6761 76609 11901 40%
c d 33.96 26 227 0 29 8984 25 104587 16506 3.5 25 7 1 5 24% 6759 76609 11900 40%
c u 34.03 26 227 0 29 8984 25 104587 14643 3.5 25 7 1 5 24% 6768 76609 11900 40%
c v 34.12 26 227 0 29 8984 25 104587 12329 3.5 25 7 1 5 24% 6772 76609 11900 40%
c w 34.27 26 227 0 29 8984 25 104587 12287 3.5 25 7 1 5 24% 6772 76609 11900 40%
c x 34.39 26 227 0 29 8984 25 104587 12283 3.5 25 7 1 5 24% 6777 76405 11900 40%
c = 34.89 26 227 0 29 8984 25 104587 12283 3.5 25 7 1 5 24% 6918 76210 11808 39%
c
c  seconds   switched     rate          size/glue tier1    binary         remaining
c         MB   reductions   conflicts         size  tier2     irredundant
c           level   restarts       redundant    glue   trail         variables
c
c d 34.90 26 227 0 29 8984 25 104587 11901 3.5 25 7 1 5 24% 6775 76208 11808 39%
c t 34.91 26 227 0 29 8984 25 104587 11901 3.5 25 7 1 5 24% 6714 76208 11808 39%
c f 35.00 26 227 0 29 8984 25 104587 11901 3.5 25 7 1 5 24% 6722 76113 11816 39%
c u 35.11 26 227 0 29 8984 25 104587 11347 3.5 25 7 1 5 24% 6726 76113 11816 39%
c v 35.17 26 227 0 29 8984 25 104587 10817 3.5 25 7 1 5 24% 6731 76113 11816 39%
c w 35.35 26 227 0 29 8984 25 104587 10544 3.5 25 7 1 5 24% 6731 76113 11816 39%
c t 35.85 26 227 0 29 8984 25 104587 10544 3.5 25 7 1 5 24% 6727 76113 11816 39%
c - 36.42 26 221 0 30 9230 25 107606 11235 3.4 25 7 1 5 24% 6747 76112 11816 39%
c i 36.53 26 221 0 30 9297 25 107930 11538 3.4 25 7 1 5 24% 6749 76111 11815 39%
c i 36.95 26 217 0 30 9505 24 110166 13613 3.4 25 7 1 5 24% 6762 76110 11814 39%
c o 36.98 26 217 0 30 9508 24 110581 14008 3.4 25 7 1 5 24% 6763 76110 11814 39%
c i 37.32 26 215 0 30 9677 24 111621 14991 3.3 25 7 1 5 24% 6766 76110 11813 39%
c i 37.48 26 215 0 30 9786 24 112119 15454 3.3 25 7 1 5 24% 6770 76110 11812 39%
c i 37.57 26 214 0 30 9806 24 112998 16231 3.3 25 7 1 5 24% 6782 76110 11810 39%
c - 37.60 26 214 0 31 9825 24 113083 13602 3.3 25 7 1 5 24% 6766 76110 11810 39%
c i 37.81 26 212 0 31 9946 24 114036 14441 3.3 24 7 1 5 24% 6784 76109 11809 39%
c i 37.84 26 211 0 31 9981 24 114514 14822 3.3 24 7 1 5 24% 6789 76109 11808 39%
c i 37.94 26 209 0 31 10037 24 115650 15774 3.3 24 7 1 5 24% 6800 76109 11807 39%
c i 37.99 26 208 0 31 10082 24 116183 16236 3.3 24 7 1 5 24% 6807 76109 11806 39%
c i 38.02 26 208 0 31 10103 24 116531 16546 3.3 24 7 1 5 24% 6808 76109 11805 39%
c
c  seconds   switched      rate          size/glue tier1    binary         remaining
c         MB   reductions    conflicts         size  tier2     irredundant
c           level   restarts        redundant    glue   trail         variables
c
c i 38.15 26 204 0 31 10206 23 118117 17959 3.3 24 7 1 5 24% 6823 76107 11804 39%
c i 38.18 26 203 0 31 10240 23 118604 18397 3.3 24 7 1 5 24% 6831 76107 11803 39%
c - 38.19 26 203 0 32 10244 23 118650 15142 3.3 24 7 1 5 24% 6808 76107 11803 39%
c i 38.24 26 202 0 32 10283 23 119449 15836 3.2 24 7 1 5 24% 6821 76107 11802 39%
c i 38.30 26 197 0 32 10323 22 121243 17417 3.2 24 7 1 5 23% 6856 76105 11801 39%
c i 38.33 26 195 0 32 10335 22 122125 18156 3.2 24 7 1 5 23% 6878 76105 11798 39%
c i 38.33 26 195 0 32 10335 22 122140 18159 3.2 24 7 1 5 23% 6883 76105 11797 39%
c i 38.33 26 195 0 32 10335 22 122141 18159 3.2 24 7 1 5 23% 6883 76105 11796 39%
c i 38.33 26 195 0 32 10335 22 122142 18159 3.2 24 7 1 5 23% 6883 76105 11795 39%
c } 38.33 26 195 0 32 10335 22 122151 18160 3.2 24 7 1 5 23% 6885 76105 11767 39%
c 0 38.33 26 195 0 32 10335 22 122151 18160 3.2 24 7 1 5 23% 6885 76105 11767 39%
c
c ---- [ result ] ------------------------------------------------------------
c
s UNSATISFIABLE
c
c ---- [ profiling ] ---------------------------------------------------------
c
c          26.44   68.98 %  search
c          26.44   68.98 %  focused
c          11.26   29.38 %  simplify
c          10.79   28.14 %  probe
c           4.23   11.04 %  sweep
c           4.08   10.65 %  vivify
c           0.90    2.35 %  factor
c           0.80    2.10 %  eliminate
c           0.72    1.87 %  congruence
c           0.60    1.56 %  substitute
c           0.55    1.43 %  preprocess
c           0.22    0.58 %  reduce
c           0.21    0.56 %  fastel
c           0.17    0.44 %  transitive
c           0.15    0.40 %  subsume
c           0.09    0.23 %  backbone
c           0.05    0.12 %  lucky
c           0.03    0.09 %  parse
c =============================================
c          38.33  100.00 %  total
c
c ---- [ statistics ] --------------------------------------------------------
c
c chronological:                         5803                5 %  conflicts
c conflicts:                           122151             3186.55 per second
c congruent:                             2815                9 %  variables
c decisions:                          2830123               23.17 per conflict
c eliminated:                           14868               50 %  variables
c factored:                              6466               22 %  variables
c fast_eliminated:                       9480               64 %  eliminated
c fast_strengthened:                      184               10 %  per strengthened
c fast_subsumed:                           46                0 %  per subsumed
c iterations:                              20                0 %  variables
c propagations:                     109435329          2854841    per second
c reductions:                              32             3817    interval
c reordered:                                5            24430    interval
c restarts:                             10335               12    interval
c strengthened:                          1893                0 %  checks
c substituted:                           9692               32 %  variables
c subsumed:                             11705                0 %  checks
c switched:                                 0                0    interval
c vivified:                             61836               11 %  checks
c
c ---- [ glue usage ] --------------------------------------------------------
c
c focused glue 1 used 155844 clauses 55.43% accumulated 55.43% tier1
c focused glue 2 used  59961 clauses 21.33% accumulated 76.75%
c focused glue 3 used  18833 clauses  6.70% accumulated 83.45%
c focused glue 4 used  11639 clauses  4.14% accumulated 87.59%
c focused glue 5 used   7818 clauses  2.78% accumulated 90.37% tier2
c
c ---- [ resources ] ---------------------------------------------------------
c
c maximum-resident-set-size:         27385856 bytes         26 MB
c process-time:                            38s              38.33 seconds
c
c ---- [ shutting down ] -----------------------------------------------------
c
c exit 20
